job_count = 12 ;
duration = [|10, 5|12, 2|19, 13|22, 5|10, 11|20, 3|15, 6|3, 3|10, 2|8, 2|18, 6|6, 8|] ;
machine_count = 2 ;
cost = [|18, 35|25, 53|16, 28|18, 47|25, 39|24, 47|26, 49|21, 42|24, 45|20, 43|27, 47|30, 51|] ;
deadline = [40, 40, 40, 40, 40, 40, 40, 40, 40, 40, 40, 40] ;
release = [0, 0, 0, 0, 0, 0, 0, 0, 0, 0, 0, 0] ;
resource = [|9, 9|4, 4|6, 6|4, 4|5, 5|6, 6|5, 5|5, 5|9, 9|2, 2|7, 7|8, 8|] ;
capacities = [10, 10] ;
